data;

param n:=25;
param p:=4;
param r:=[1] 0 [2] 3 [3] 2 [4] 1 [5] 14 [6] 0 [7] 7 [8] 19 [9] 2 [10] 25 [11] 23 [12] 29 [13] 17 [14] 52 [15] 19 [16] 49 [17] 47 [18] 10 [19] 19 [20] 14 [21] 38 [22] 27 [23] 21 [24] 78 [25] 77 ;
param w:=[1] 32 [2] 57 [3] 48 [4] 58 [5] 50 [6] 93 [7] 98 [8] 64 [9] 89 [10] 29 [11] 11 [12] 64 [13] 95 [14] 100 [15] 23 [16] 47 [17] 20 [18] 51 [19] 47 [20] 93 [21] 49 [22] 87 [23] 88 [24] 92 [25] 30 ;

end;
